data;


param d:= 100;
param r:=5;
param p:=0.800000;
param M:=1000;
param U:=
         1         1       -6.527630e-01
         2         1       -1.706615e+00
         3         1        7.293802e-01
         4         1       -6.980493e-01
         5         1       -2.664362e+00
         6         1        9.007800e-01
         7         1        1.115445e+00
         8         1        1.484639e+00
         9         1        1.168623e+00
        10         1       -9.797314e-01
        11         1        1.030429e+00
        12         1        4.344182e-02
        13         1        9.212135e-01
        14         1       -2.485115e-01
        15         1       -3.668211e-01
        16         1        3.425499e-02
        17         1       -1.455263e-01
        18         1        3.858548e-02
        19         1       -6.806313e-01
        20         1       -3.275030e-01
        21         1       -9.865677e-01
        22         1        6.256968e-01
        23         1       -1.316092e+00
        24         1        1.848165e+00
        25         1        8.482776e-01
        26         1       -4.501684e-01
        27         1       -7.358521e-01
        28         1        1.324511e+00
        29         1       -7.019103e-01
        30         1        1.150027e+00
        31         1       -7.281577e-02
        32         1        2.057862e-01
        33         1       -5.584741e-01
        34         1        2.282223e-03
        35         1       -7.215822e-01
        36         1        6.121239e-01
        37         1       -1.617638e-01
        38         1       -1.657981e+00
        39         1       -3.792055e-01
        40         1        4.157416e-01
        41         1       -9.200565e-01
        42         1        9.277851e-01
        43         1        9.531447e-01
        44         1       -2.261533e+00
        45         1       -1.025053e+00
        46         1        1.908990e+00
        47         1       -3.816397e-01
        48         1        2.332757e+00
        49         1       -9.958795e-01
        50         1       -9.612233e-01
        51         1       -3.565566e-01
        52         1       -8.674404e-01
        53         1       -1.672598e+00
        54         1        1.494863e+00
        55         1       -2.003646e+00
        56         1       -4.505731e-01
        57         1       -7.295007e-01
        58         1        4.668543e-01
        59         1       -4.862164e-01
        60         1        4.088089e-01
        61         1        1.947605e-01
        62         1       -1.362964e+00
        63         1        1.123068e-01
        64         1       -1.166748e+00
        65         1       -1.213643e+00
        66         1       -2.576075e-01
        67         1        1.237304e+00
        68         1       -1.082216e+00
        69         1       -3.016073e-01
        70         1        8.427595e-02
        71         1        3.472295e-01
        72         1        3.407577e-01
        73         1       -2.742639e-02
        74         1        6.370713e-01
        75         1        3.265143e-01
        76         1        6.341972e-02
        77         1        1.880549e+00
        78         1       -5.149190e-01
        79         1       -1.381931e+00
        80         1       -1.401580e+00
        81         1        1.051182e+00
        82         1        1.241057e+00
        83         1        5.837464e-01
        84         1        1.211864e+00
        85         1        1.019131e+00
        86         1       -3.232927e-01
        87         1        1.377516e-01
        88         1        1.965206e-01
        89         1        1.461646e+00
        90         1       -1.819785e-01
        91         1        1.451751e-01
        92         1       -3.452593e-01
        93         1        1.330456e+00
        94         1        7.232007e-01
        95         1        4.656597e-01
        96         1       -1.037328e+00
        97         1        5.694185e-01
        98         1        1.775174e+00
        99         1       -3.743801e-01
       100         1       -1.937463e+00
         1         2       -5.612879e-01
         2         2       -1.055107e-01
         3         2       -1.293954e+00
         4         2       -1.423593e+00
         5         2        2.265918e-01
         6         2       -8.451164e-01
         7         2        1.023799e-01
         8         2        1.468363e+00
         9         2       -5.602175e-01
        10         2        3.665166e-02
        11         2        1.802083e+00
        12         2       -4.018835e-02
        13         2       -9.520629e-01
        14         2        9.515118e-01
        15         2        8.220596e-01
        16         2        1.575116e+00
        17         2        2.517586e+00
        18         2        7.969310e-01
        19         2       -1.299621e-01
        20         2       -2.125727e+00
        21         2       -2.046065e-01
        22         2       -1.370702e-01
        23         2        6.256582e-01
        24         2        1.069608e+00
        25         2       -1.511553e-01
        26         2        7.661364e-01
        27         2        9.285195e-01
        28         2       -8.556835e-01
        29         2        5.621124e-01
        30         2       -6.951802e-01
        31         2       -4.640149e-01
        32         2        1.493831e+00
        33         2        4.993225e-01
        34         2        1.498318e+00
        35         2       -1.577836e-01
        36         2        1.653136e+00
        37         2       -1.314461e-01
        38         2       -5.920812e-01
        39         2       -3.434671e-01
        40         2        1.219521e+00
        41         2       -1.858582e-02
        42         2        1.100549e+00
        43         2       -7.786577e-01
        44         2        6.113755e-01
        45         2       -1.645469e+00
        46         2       -3.128410e+00
        47         2        2.250560e-01
        48         2       -9.072564e-01
        49         2       -1.195051e-02
        50         2       -1.278873e+00
        51         2        1.159715e+00
        52         2       -2.738423e-01
        53         2       -1.056423e+00
        54         2        1.149447e+00
        55         2       -2.173493e-01
        56         2        7.619972e-01
        57         2       -3.812251e-01
        58         2       -6.789711e-01
        59         2       -4.544718e-01
        60         2       -1.290328e+00
        61         2       -6.328303e-01
        62         2        8.897748e-01
        63         2       -2.966163e-02
        64         2        5.590092e-02
        65         2       -7.585806e-01
        66         2        3.433299e-01
        67         2        1.821336e+00
        68         2       -1.164365e+00
        69         2       -8.013358e-03
        70         2       -3.016646e-01
        71         2        4.956645e-01
        72         2        4.171135e-01
        73         2        3.649405e-01
        74         2       -1.373690e+00
        75         2        4.844985e-01
        76         2        8.709494e-01
        77         2       -1.816738e+00
        78         2       -6.434359e-01
        79         2       -2.665119e-01
        80         2       -5.868584e-01
        81         2       -2.204094e+00
        82         2       -2.531673e-01
        83         2       -1.383316e+00
        84         2        7.424925e-01
        85         2       -1.468421e-02
        86         2       -7.409680e-01
        87         2       -1.927974e+00
        88         2        2.001555e+00
        89         2       -5.205146e-02
        90         2        1.107619e+00
        91         2        1.263635e+00
        92         2        1.052941e+00
        93         2        7.636041e-01
        94         2        2.245991e-01
        95         2        3.052609e-02
        96         2        6.953646e-01
        97         2       -2.753898e-02
        98         2       -8.094131e-01
        99         2       -2.598861e-01
       100         2        3.382090e-01
         1         3       -3.550017e-01
         2         3        6.464953e-01
         3         3        7.920791e-01
         4         3        3.750528e-01
         5         3        1.469191e+00
         6         3       -1.631166e+00
         7         3       -1.649071e+00
         8         3       -1.103727e+00
         9         3       -1.712931e+00
        10         3       -2.492271e-01
        11         3        4.089521e-01
        12         3        5.480553e-01
        13         3       -5.015307e-01
        14         3        5.761147e-01
        15         3       -1.029903e+00
        16         3        7.465953e-01
        17         3        1.122924e+00
        18         3        1.181860e+00
        19         3       -1.956396e+00
        20         3       -4.162384e-01
        21         3       -3.861452e-01
        22         3       -1.256189e+00
        23         3       -1.691707e-01
        24         3       -4.429888e-01
        25         3       -3.014380e-01
        26         3        3.277364e-01
        27         3       -9.270362e-01
        28         3       -3.395060e-01
        29         3       -5.789304e-01
        30         3        3.544898e-01
        31         3        1.336869e-01
        32         3        1.667729e-01
        33         3        4.081789e-01
        34         3       -1.578609e-01
        35         3       -1.253813e-01
        36         3       -1.634380e-01
        37         3        9.024258e-01
        38         3        1.180607e+00
        39         3        1.469879e+00
        40         3       -1.620929e+00
        41         3       -2.920734e-01
        42         3        1.155977e+00
        43         3       -1.029575e+00
        44         3        5.781765e-01
        45         3        4.189110e-01
        46         3       -1.235396e+00
        47         3       -1.745833e+00
        48         3        6.237820e-01
        49         3        1.161016e+00
        50         3       -1.373038e+00
        51         3        5.204404e-01
        52         3       -1.000342e+00
        53         3        6.724637e-01
        54         3       -1.882322e+00
        55         3        1.817306e-01
        56         3        1.358280e+00
        57         3       -1.980529e-01
        58         3        7.267905e-01
        59         3       -1.249951e+00
        60         3       -1.451797e-01
        61         3       -7.199851e-01
        62         3       -1.081234e-01
        63         3       -1.240150e+00
        64         3       -8.966972e-01
        65         3       -9.227383e-01
        66         3       -1.552183e+00
        67         3        8.278279e-01
        68         3        2.830784e-01
        69         3        7.588649e-01
        70         3        7.669919e-02
        71         3       -5.802244e-01
        72         3        7.059033e-01
        73         3       -2.763086e-01
        74         3        2.981935e-01
        75         3        1.262391e+00
        76         3       -1.117888e-02
        77         3        5.497034e-01
        78         3        2.820531e-01
        79         3       -1.256180e+00
        80         3        5.556673e-01
        81         3       -8.840403e-01
        82         3        1.351440e+00
        83         3       -8.487190e-01
        84         3        6.474069e-01
        85         3       -1.019306e+00
        86         3       -8.289055e-01
        87         3        5.420861e-02
        88         3        9.093851e-01
        89         3        1.589179e+00
        90         3       -2.111047e-01
        91         3       -1.900259e-01
        92         3        9.436628e-01
        93         3       -5.103286e-02
        94         3       -7.430955e-01
        95         3        6.767456e-01
        96         3        2.895673e-01
        97         3       -6.818853e-01
        98         3        7.968739e-01
        99         3        3.143466e-01
       100         3        1.000353e-01
         1         4        1.548569e-01
         2         4        2.921021e-01
         3         4        1.662605e+00
         4         4       -1.745150e-01
         5         4        4.596030e-01
         6         4        9.162711e-01
         7         4        5.262343e-01
         8         4        6.419473e-01
         9         4        1.635057e-01
        10         4        9.752273e-01
        11         4       -2.122289e+00
        12         4        2.986646e-01
        13         4       -8.771236e-01
        14         4        1.478787e+00
        15         4        2.662009e+00
        16         4       -1.450462e-01
        17         4       -8.346057e-02
        18         4        1.013326e+00
        19         4       -5.131585e-01
        20         4       -1.200924e-01
        21         4        2.076981e-01
        22         4       -2.057354e+00
        23         4        4.415070e-01
        24         4       -1.820190e-01
        25         4        3.983758e-01
        26         4        2.709020e-01
        27         4       -9.713485e-02
        28         4       -5.121135e-01
        29         4       -1.403529e+00
        30         4       -3.632539e-01
        31         4        6.247344e-01
        32         4       -1.594496e+00
        33         4        3.719533e-01
        34         4        2.886539e-01
        35         4        1.369211e+00
        36         4       -6.867456e-01
        37         4       -4.291445e-01
        38         4       -8.972221e-01
        39         4       -1.774918e+00
        40         4        7.526468e-01
        41         4       -5.590491e-01
        42         4       -1.001539e+00
        43         4        2.221039e-01
        44         4       -6.116890e-01
        45         4       -7.700412e-01
        46         4        7.402913e-01
        47         4       -2.550682e-01
        48         4        8.560500e-02
        49         4        2.067952e+00
        50         4       -1.207888e+00
        51         4       -9.021200e-01
        52         4       -2.353502e-01
        53         4        1.021713e+00
        54         4        1.223545e+00
        55         4        7.711846e-01
        56         4       -7.724386e-01
        57         4       -4.228559e-02
        58         4       -4.766227e-01
        59         4        6.729111e-01
        60         4       -2.436745e+00
        61         4       -3.207125e-01
        62         4        5.507572e-01
        63         4        5.353764e-01
        64         4       -2.397156e-01
        65         4       -8.593283e-01
        66         4       -1.634932e+00
        67         4       -1.404010e+00
        68         4       -2.061325e-01
        69         4       -1.104859e+00
        70         4       -5.392391e-01
        71         4        7.820048e-01
        72         4        4.772561e-01
        73         4        1.143293e+00
        74         4       -9.108854e-01
        75         4        7.202949e-01
        76         4        1.683553e+00
        77         4        1.105962e-01
        78         4        1.252805e+00
        79         4        1.563999e-01
        80         4       -1.743927e-01
        81         4       -1.189075e+00
        82         4        6.821491e-02
        83         4       -7.018507e-01
        84         4       -6.879652e-03
        85         4        4.860245e-01
        86         4        1.976438e+00
        87         4       -1.002565e-01
        88         4        8.660226e-02
        89         4       -1.312140e-01
        90         4        8.441292e-01
        91         4       -7.474394e-01
        92         4       -1.137396e+00
        93         4        6.652444e-01
        94         4        1.352357e-03
        95         4        1.236897e-02
        96         4       -7.927708e-01
        97         4        2.864897e-01
        98         4        4.890104e-01
        99         4       -2.274874e-01
       100         4       -8.614057e-01
         1         5        4.247400e-01
         2         5       -8.581275e-01
         3         5        4.265235e-01
         4         5        1.758251e+00
         5         5        1.646588e+00
         6         5        4.486633e-01
         7         5        1.905659e-01
         8         5       -2.043382e+00
         9         5        6.166433e-01
        10         5        2.804483e-01
        11         5        2.428346e-01
        12         5       -5.660129e-01
        13         5       -1.645892e+00
        14         5        9.704035e-01
        15         5       -1.183545e+00
        16         5        1.030091e+00
        17         5       -2.087380e-01
        18         5       -1.183515e+00
        19         5       -8.682850e-01
        20         5       -5.605495e-01
        21         5       -6.069054e-01
        22         5       -7.312397e-02
        23         5       -2.382869e-01
        24         5       -4.996286e-01
        25         5       -3.617485e-01
        26         5        9.902035e-02
        27         5        1.127754e+00
        28         5        1.419858e+00
        29         5        9.652766e-01
        30         5       -1.258996e+00
        31         5        1.130322e+00
        32         5        2.416148e+00
        33         5       -1.382529e+00
        34         5       -2.261271e-01
        35         5        5.603589e-02
        36         5        1.198723e-01
        37         5        1.396070e+00
        38         5        8.599942e-01
        39         5       -3.499124e-01
        40         5       -1.341831e+00
        41         5       -4.780930e-01
        42         5       -2.796534e-02
        43         5        1.020811e-02
        44         5        7.552970e-01
        45         5       -2.942307e-01
        46         5       -8.929716e-01
        47         5       -1.447799e-01
        48         5       -1.404712e+00
        49         5       -1.113239e+00
        50         5       -7.829996e-01
        51         5       -3.654260e-01
        52         5        8.076553e-02
        53         5        1.352695e+00
        54         5        2.367623e-01
        55         5       -1.678170e+00
        56         5        1.371696e+00
        57         5       -4.818017e-01
        58         5        1.665219e+00
        59         5       -1.750061e+00
        60         5        2.918980e-01
        61         5        7.325820e-01
        62         5        7.405136e-01
        63         5       -1.681266e+00
        64         5       -1.592775e-01
        65         5       -1.338156e+00
        66         5       -8.820422e-01
        67         5       -5.763167e-01
        68         5       -7.369780e-01
        69         5       -1.443724e+00
        70         5       -1.469451e+00
        71         5        2.812325e-01
        72         5       -1.558659e+00
        73         5        3.980888e-01
        74         5        2.156844e+00
        75         5       -1.717421e-01
        76         5       -2.776770e-01
        77         5        1.396924e+00
        78         5        1.320058e+00
        79         5        1.476619e+00
        80         5        3.237420e-02
        81         5        5.142425e-01
        82         5       -5.340173e-01
        83         5        8.903970e-02
        84         5        8.280986e-01
        85         5       -1.837364e-01
        86         5       -1.518196e+00
        87         5       -1.342589e+00
        88         5       -5.922057e-01
        89         5        1.777114e+00
        90         5        1.887787e-01
        91         5       -7.121084e-01
        92         5        3.304526e-01
        93         5       -1.531882e+00
        94         5       -1.602629e-01
        95         5        1.775784e+00
        96         5        4.300845e-01
        97         5        8.833468e-01
        98         5        9.738145e-01
        99         5        4.779888e-01
       100         5        7.438694e-03
;

param theta:=
    1        3.935557e-02
    2       -1.062961e+00
    3        1.650140e+00
    4        3.727471e-01
    5       -6.172019e-02
;
param X_true:=
    1        1.593747e-02
    2        1.273622e+00
    3        3.306311e+00
    4        1.930506e+00
    5        2.148464e+00
    6       -1.445954e+00
    7       -2.600570e+00
    8       -2.959652e+00
    9       -2.162043e+00
   10       -1.413658e-01
   11       -2.005075e+00
   12        1.094899e+00
   13       -4.335050e-03
   14        4.206162e-01
   15       -1.521807e+00
   16       -5.572098e-01
   17       -8.467290e-01
   18        1.556392e+00
   19       -3.253656e+00
   20        1.550480e+00
   21       -3.429844e-01
   22       -2.666694e+00
   23       -8.188461e-01
   24       -1.830692e+00
   25       -1.337163e-01
   26       -1.957024e-01
   27       -2.652471e+00
   28        1.234963e-01
   29       -2.162581e+00
   30        1.310053e+00
   31        8.754527e-01
   32       -2.048994e+00
   33        3.439407e-01
   34       -1.730326e+00
   35        4.390923e-01
   36       -2.266252e+00
   37        1.376132e+00
   38        2.123043e+00
   39        2.135634e+00
   40       -3.592122e+00
   41       -6.754790e-01
   42        4.011919e-01
   43       -7.525661e-01
   44       -5.950073e-02
   45        2.130435e+00
   46        1.693418e+00
   47       -3.220460e+00
   48        2.204771e+00
   49        2.728292e+00
   50       -1.345763e+00
   51       -7.019860e-01
   52       -1.487700e+00
   53        2.465922e+00
   54       -3.828798e+00
   55        8.436573e-01
   56        1.039283e+00
   57        6.541039e-02
   58        1.657705e+00
   59       -1.240219e+00
   60        2.225027e-01
   61       -6.716718e-01
   62       -1.018875e+00
   63       -1.705184e+00
   64       -1.665042e+00
   65       -1.002875e+00
   66       -3.490567e+00
   67       -1.010148e+00
   68        1.632304e+00
   69        9.287585e-01
   70        3.411029e-01
   71       -1.194747e+00
   72        1.009257e+00
   73       -4.429411e-01
   74        1.505711e+00
   75        1.859157e+00
   76       -2.970599e-01
   77        2.865429e+00
   78        1.514148e+00
   79       -1.876062e+00
   80        1.418501e+00
   81        4.506458e-01
   82        2.607295e+00
   83       -1.732019e-01
   84        2.736711e-01
   85       -1.433289e+00
   86        2.362389e-01
   87        2.190657e+00
   88       -5.506892e-01
   89        2.575711e+00
   90       -1.229984e+00
   91       -1.884851e+00
   92       -1.996034e-02
   93       -5.000572e-01
   94       -1.425890e+00
   95        9.970325e-01
   96       -6.240287e-01
   97       -1.022553e+00
   98        2.366197e+00
   99        6.663326e-01
  100       -5.916399e-01
;
param X:=
    1        1.112494e+00
    2        1.273622e+00
    3        1.285446e+00
    4       -2.131872e+00
    5        2.148464e+00
    6       -1.489902e+00
    7        2.126742e+00
    8        6.761897e-01
    9        1.320697e+00
   10        8.077228e-01
   11        1.096378e+00
   12       -1.384633e+00
   13        1.036249e+00
   14        4.206162e-01
   15        3.399014e-01
   16       -4.502012e-02
   17        1.436804e+00
   18        1.439053e+00
   19       -3.253656e+00
   20        1.174472e+00
   21       -3.429844e-01
   22       -5.552026e-02
   23        1.948179e+00
   24       -2.127882e+00
   25        1.212888e-01
   26        8.055807e-01
   27        3.247577e+00
   28        2.811600e-01
   29       -2.162581e+00
   30       -5.340171e-01
   31        1.399854e+00
   32       -2.048994e+00
   33        5.903995e-01
   34       -3.099187e-01
   35       -9.239970e-01
   36       -3.948368e-01
   37       -1.896967e+00
   38       -2.800393e-01
   39        4.240959e-01
   40        2.598105e+00
   41       -4.540781e-01
   42        4.011919e-01
   43       -7.091328e-01
   44       -1.762138e-01
   45       -6.396596e-03
   46        1.099413e+00
   47       -3.220460e+00
   48        2.381802e-01
   49        2.728292e+00
   50        5.123111e-01
   51       -7.019860e-01
   52        7.394282e-01
   53       -1.115644e+00
   54       -5.327804e-01
   55        8.364899e-01
   56        1.156082e+00
   57       -1.975638e+00
   58        1.657705e+00
   59        2.028036e-01
   60       -2.588877e-01
   61       -1.165865e-01
   62        1.199027e+00
   63       -1.705184e+00
   64       -1.031616e+00
   65        6.933045e-02
   66       -1.379677e+00
   67        1.237502e+00
   68        3.373286e-01
   69        9.287585e-01
   70        7.191676e-01
   71       -1.194747e+00
   72        1.009257e+00
   73       -7.479523e-01
   74       -1.047151e+00
   75       -8.543992e-01
   76        1.175385e+00
   77       -2.652029e-01
   78        1.204438e+00
   79       -1.876062e+00
   80       -2.261654e+00
   81       -1.242554e+00
   82        1.003695e-03
   83        9.562023e-01
   84        8.354752e-02
   85       -7.548650e-01
   86       -9.117285e-01
   87       -3.891100e-01
   88       -5.506892e-01
   89        2.318232e-01
   90        1.237615e+00
   91        1.482520e-01
   92       -3.039727e-01
   93        4.330277e-01
   94       -3.224923e-01
   95       -1.200425e+00
   96       -6.240287e-01
   97        1.073393e+00
   98        2.366197e+00
   99       -3.418459e-01
  100        3.298157e-01
;
param outliervec:=
    1    1
    2    0
    3    1
    4    1
    5    0
    6    1
    7    1
    8    1
    9    1
   10    1
   11    1
   12    1
   13    1
   14    0
   15    1
   16    1
   17    1
   18    1
   19    0
   20    1
   21    0
   22    1
   23    1
   24    1
   25    1
   26    1
   27    1
   28    1
   29    0
   30    1
   31    1
   32    0
   33    1
   34    1
   35    1
   36    1
   37    1
   38    1
   39    1
   40    1
   41    1
   42    0
   43    1
   44    1
   45    1
   46    1
   47    0
   48    1
   49    0
   50    1
   51    0
   52    1
   53    1
   54    1
   55    1
   56    1
   57    1
   58    0
   59    1
   60    1
   61    1
   62    1
   63    0
   64    1
   65    1
   66    1
   67    1
   68    1
   69    0
   70    1
   71    0
   72    0
   73    1
   74    1
   75    1
   76    1
   77    1
   78    1
   79    0
   80    1
   81    1
   82    1
   83    1
   84    1
   85    1
   86    1
   87    1
   88    0
   89    1
   90    1
   91    1
   92    1
   93    1
   94    1
   95    1
   96    0
   97    1
   98    0
   99    1
  100    1
;